w = 35;
n = 22;
measures = [|14, 35,
|4, 23,
|4, 20,
|4, 17,
|3, 22,
|3, 19,
|4, 12,
|3, 12,
|4, 8,
|3, 10,
|4, 7,
|3, 9,
|3, 8,
|4, 6,
|3, 7,
|4, 5,
|3, 6,
|4, 4,
|3, 5,
|3, 4,
|4, 3,
|3, 3,
|];
initial_x = [0, 14, 18, 22, 26, 29, 0, 4, 7, 11, 14, 18, 21, 24, 28, 31, 0, 3, 7, 10, 13, 17];
initial_y = [0, 0, 0, 0, 0, 0, 35, 35, 35, 35, 35, 35, 35, 35, 35, 35, 47, 47, 47, 47, 47, 47];